(set-logic QF_S)
(declare-fun _var_0xINPUT_111449_() String)
(declare-fun __woorpje_diseq_pref0_() String)
(declare-fun __woorpje_diseq_suf_l0_() String)
(declare-fun __woorpje_diseq_suf_r0_() String)
(assert (=(str.++  "25D8sFAVQ6" "")(str.++ __woorpje_diseq_pref0_  "F" __woorpje_diseq_suf_l0_  "")) )
(assert (=(str.++ _var_0xINPUT_111449_  "")(str.++ __woorpje_diseq_pref0_  "6" __woorpje_diseq_suf_r0_  "")) )
(check-sat)
